benchmarks_vrp/CMT2/tsp_classic/CMT2_3.vrp
NAME: CMT2_3
TYPE: CVRP
COMMENT: 835.26 - Cluster Nr.3
DIMENSION: 7
CAPACITY: 140
EDGE_WEIGHT_TYPE: EUC_2D
NODE_COORD_TYPE: TWOD_COORDS
NODE_COORD_SECTION: 
4 38 33
3 33 34
6 40 40
2 45 35
5 40 37
1 43 26
7 36 26
DEPOT_SECTION: 
6
-1
DEMAND_SECTION: 
4 10
5 20
6 0
2 30
3 19
7 26
1 22
EOF
