benchmarks_vrp/CMT2/tsp_classic/CMT2_3.tour
NAME: CMT2_3 solution
TYPE: TOUR
TOUR_SECTION:
6 2 1 7 3 4 5 -1
-1
EOF